p cnf 430 1488
-191 -170 0
-191 25 0
-191 189 0
-191 12 0
-191 -98 0
191 170 -25 -189 -12 98 0
-192 -53 0
-192 78 0
-192 -46 0
-192 188 0
-192 -21 0
192 53 -78 46 -188 21 0
-193 -64 0
-193 107 0
-193 -47 0
-193 34 0
-193 25 0
193 64 -107 47 -34 -25 0
-194 -68 0
-194 -55 0
-194 -87 0
-194 107 0
-194 -64 0
194 68 55 87 -107 64 0
-195 -162 0
-195 -72 0
-195 -160 0
-195 -30 0
-195 -124 0
195 162 72 160 30 124 0
191 192 193 194 195 0
-196 -150 0
-196 -89 0
-196 -139 0
-196 -35 0
-196 -36 0
196 150 89 139 35 36 0
-197 157 0
-197 -102 0
-197 61 0
-197 39 0
-197 -122 0
197 -157 102 -61 -39 122 0
-198 -107 0
-198 -177 0
-198 165 0
-198 -179 0
-198 54 0
198 107 177 -165 179 -54 0
-199 -123 0
-199 -66 0
-199 41 0
-199 34 0
-199 -15 0
199 123 66 -41 -34 15 0
-200 -77 0
-200 -52 0
-200 -25 0
-200 -159 0
-200 -61 0
200 77 52 25 159 61 0
196 197 198 199 200 0
-201 21 0
-201 -93 0
-201 -159 0
-201 -42 0
-201 166 0
201 -21 93 159 42 -166 0
-202 135 0
-202 8 0
-202 -99 0
-202 -35 0
-202 48 0
202 -135 -8 99 35 -48 0
-203 -115 0
-203 185 0
-203 126 0
-203 -109 0
-203 -74 0
203 115 -185 -126 109 74 0
-204 -156 0
-204 -29 0
-204 -2 0
-204 -47 0
-204 -27 0
204 156 29 2 47 27 0
-205 -104 0
-205 -151 0
-205 90 0
-205 171 0
-205 -108 0
205 104 151 -90 -171 108 0
201 202 203 204 205 0
-206 -184 0
-206 67 0
-206 179 0
-206 -82 0
-206 13 0
206 184 -67 -179 82 -13 0
-207 60 0
-207 126 0
-207 -107 0
-207 141 0
-207 -86 0
207 -60 -126 107 -141 86 0
-208 137 0
-208 61 0
-208 -31 0
-208 87 0
-208 -80 0
208 -137 -61 31 -87 80 0
-209 64 0
-209 26 0
-209 4 0
-209 146 0
-209 -166 0
209 -64 -26 -4 -146 166 0
-210 59 0
-210 44 0
-210 -100 0
-210 -117 0
-210 -111 0
210 -59 -44 100 117 111 0
206 207 208 209 210 0
-211 -189 0
-211 -174 0
-211 -5 0
-211 -115 0
-211 142 0
211 189 174 5 115 -142 0
-212 64 0
-212 71 0
-212 166 0
-212 96 0
-212 -9 0
212 -64 -71 -166 -96 9 0
-213 152 0
-213 130 0
-213 -131 0
-213 121 0
-213 148 0
213 -152 -130 131 -121 -148 0
-214 159 0
-214 145 0
-214 25 0
-214 4 0
-214 -94 0
214 -159 -145 -25 -4 94 0
-215 -1 0
-215 -126 0
-215 28 0
-215 -137 0
-215 -39 0
215 1 126 -28 137 39 0
211 212 213 214 215 0
-216 50 0
-216 27 0
-216 55 0
-216 -75 0
-216 -145 0
216 -50 -27 -55 75 145 0
-217 186 0
-217 -15 0
-217 127 0
-217 152 0
-217 29 0
217 -186 15 -127 -152 -29 0
-218 79 0
-218 -38 0
-218 29 0
-218 -101 0
-218 46 0
218 -79 38 -29 101 -46 0
-219 -164 0
-219 159 0
-219 -35 0
-219 -154 0
-219 47 0
219 164 -159 35 154 -47 0
-220 -146 0
-220 148 0
-220 124 0
-220 -92 0
-220 -119 0
220 146 -148 -124 92 119 0
216 217 218 219 220 0
-221 -169 0
-221 93 0
-221 -86 0
-221 -39 0
-221 33 0
221 169 -93 86 39 -33 0
-222 -99 0
-222 3 0
-222 -129 0
-222 181 0
-222 -115 0
222 99 -3 129 -181 115 0
-223 27 0
-223 -163 0
-223 -16 0
-223 -182 0
-223 -11 0
223 -27 163 16 182 11 0
-224 175 0
-224 24 0
-224 -70 0
-224 82 0
-224 -8 0
224 -175 -24 70 -82 8 0
-225 -1 0
-225 -119 0
-225 -49 0
-225 32 0
-225 177 0
225 1 119 49 -32 -177 0
221 222 223 224 225 0
-226 -59 0
-226 -124 0
-226 187 0
-226 -10 0
-226 26 0
226 59 124 -187 10 -26 0
-227 45 0
-227 27 0
-227 17 0
-227 -28 0
-227 -116 0
227 -45 -27 -17 28 116 0
-228 31 0
-228 29 0
-228 102 0
-228 186 0
-228 43 0
228 -31 -29 -102 -186 -43 0
-229 -94 0
-229 -115 0
-229 -104 0
-229 108 0
-229 72 0
229 94 115 104 -108 -72 0
-230 -93 0
-230 135 0
-230 -21 0
-230 62 0
-230 52 0
230 93 -135 21 -62 -52 0
226 227 228 229 230 0
-231 14 0
-231 154 0
-231 -127 0
-231 168 0
-231 -95 0
231 -14 -154 127 -168 95 0
-232 188 0
-232 14 0
-232 109 0
-232 34 0
-232 -152 0
232 -188 -14 -109 -34 152 0
-233 -1 0
-233 131 0
-233 -182 0
-233 139 0
-233 -81 0
233 1 -131 182 -139 81 0
-234 -76 0
-234 -55 0
-234 -10 0
-234 13 0
-234 -137 0
234 76 55 10 -13 137 0
-235 4 0
-235 53 0
-235 18 0
-235 -141 0
-235 23 0
235 -4 -53 -18 141 -23 0
231 232 233 234 235 0
-236 144 0
-236 44 0
-236 77 0
-236 33 0
-236 -10 0
236 -144 -44 -77 -33 10 0
-237 -50 0
-237 -67 0
-237 166 0
-237 -71 0
-237 119 0
237 50 67 -166 71 -119 0
-238 125 0
-238 -34 0
-238 -161 0
-238 -151 0
-238 -121 0
238 -125 34 161 151 121 0
-239 -174 0
-239 -27 0
-239 75 0
-239 5 0
-239 58 0
239 174 27 -75 -5 -58 0
-240 54 0
-240 90 0
-240 -178 0
-240 -144 0
-240 183 0
240 -54 -90 178 144 -183 0
236 237 238 239 240 0
-241 125 0
-241 -190 0
-241 60 0
-241 -85 0
-241 95 0
241 -125 190 -60 85 -95 0
-242 3 0
-242 -148 0
-242 -153 0
-242 170 0
-242 -79 0
242 -3 148 153 -170 79 0
-243 -2 0
-243 118 0
-243 -189 0
-243 -81 0
-243 -177 0
243 2 -118 189 81 177 0
-244 -187 0
-244 -163 0
-244 -133 0
-244 53 0
-244 9 0
244 187 163 133 -53 -9 0
-245 100 0
-245 -45 0
-245 102 0
-245 182 0
-245 124 0
245 -100 45 -102 -182 -124 0
241 242 243 244 245 0
-246 -136 0
-246 158 0
-246 137 0
-246 45 0
-246 -160 0
246 136 -158 -137 -45 160 0
-247 -78 0
-247 -172 0
-247 -77 0
-247 -125 0
-247 -7 0
247 78 172 77 125 7 0
-248 -188 0
-248 160 0
-248 -79 0
-248 177 0
-248 -136 0
248 188 -160 79 -177 136 0
-249 -176 0
-249 24 0
-249 -154 0
-249 -3 0
-249 134 0
249 176 -24 154 3 -134 0
-250 16 0
-250 -5 0
-250 -119 0
-250 146 0
-250 -185 0
250 -16 5 119 -146 185 0
246 247 248 249 250 0
-251 31 0
-251 -5 0
-251 -140 0
-251 -143 0
-251 53 0
251 -31 5 140 143 -53 0
-252 149 0
-252 67 0
-252 -118 0
-252 16 0
-252 8 0
252 -149 -67 118 -16 -8 0
-253 -23 0
-253 78 0
-253 -34 0
-253 130 0
-253 33 0
253 23 -78 34 -130 -33 0
-254 102 0
-254 176 0
-254 -6 0
-254 -14 0
-254 -36 0
254 -102 -176 6 14 36 0
-255 178 0
-255 -168 0
-255 145 0
-255 22 0
-255 -154 0
255 -178 168 -145 -22 154 0
251 252 253 254 255 0
-256 -99 0
-256 61 0
-256 -1 0
-256 111 0
-256 152 0
256 99 -61 1 -111 -152 0
-257 -15 0
-257 89 0
-257 55 0
-257 185 0
-257 -46 0
257 15 -89 -55 -185 46 0
-258 13 0
-258 48 0
-258 147 0
-258 77 0
-258 -123 0
258 -13 -48 -147 -77 123 0
-259 -49 0
-259 132 0
-259 112 0
-259 -164 0
-259 -140 0
259 49 -132 -112 164 140 0
-260 -24 0
-260 171 0
-260 -107 0
-260 140 0
-260 179 0
260 24 -171 107 -140 -179 0
256 257 258 259 260 0
-261 -121 0
-261 -33 0
-261 -26 0
-261 56 0
-261 -84 0
261 121 33 26 -56 84 0
-262 54 0
-262 -66 0
-262 29 0
-262 -103 0
-262 182 0
262 -54 66 -29 103 -182 0
-263 115 0
-263 -76 0
-263 -4 0
-263 -144 0
-263 103 0
263 -115 76 4 144 -103 0
-264 -83 0
-264 31 0
-264 -130 0
-264 -28 0
-264 104 0
264 83 -31 130 28 -104 0
-265 99 0
-265 51 0
-265 70 0
-265 26 0
-265 -110 0
265 -99 -51 -70 -26 110 0
261 262 263 264 265 0
-266 -102 0
-266 -171 0
-266 99 0
-266 -120 0
-266 -122 0
266 102 171 -99 120 122 0
-267 -23 0
-267 49 0
-267 182 0
-267 102 0
-267 156 0
267 23 -49 -182 -102 -156 0
-268 -178 0
-268 166 0
-268 -125 0
-268 -55 0
-268 -58 0
268 178 -166 125 55 58 0
-269 95 0
-269 -99 0
-269 -77 0
-269 -137 0
-269 45 0
269 -95 99 77 137 -45 0
-270 75 0
-270 -95 0
-270 -63 0
-270 -174 0
-270 127 0
270 -75 95 63 174 -127 0
266 267 268 269 270 0
-271 -132 0
-271 72 0
-271 -2 0
-271 77 0
-271 -101 0
271 132 -72 2 -77 101 0
-272 -134 0
-272 19 0
-272 141 0
-272 49 0
-272 169 0
272 134 -19 -141 -49 -169 0
-273 139 0
-273 -46 0
-273 135 0
-273 152 0
-273 182 0
273 -139 46 -135 -152 -182 0
-274 -88 0
-274 -133 0
-274 9 0
-274 181 0
-274 -99 0
274 88 133 -9 -181 99 0
-275 -181 0
-275 64 0
-275 -68 0
-275 -189 0
-275 -44 0
275 181 -64 68 189 44 0
271 272 273 274 275 0
-276 45 0
-276 19 0
-276 183 0
-276 -76 0
-276 145 0
276 -45 -19 -183 76 -145 0
-277 -27 0
-277 -182 0
-277 19 0
-277 -184 0
-277 -152 0
277 27 182 -19 184 152 0
-278 -103 0
-278 -5 0
-278 -7 0
-278 107 0
-278 40 0
278 103 5 7 -107 -40 0
-279 -123 0
-279 117 0
-279 -116 0
-279 172 0
-279 -156 0
279 123 -117 116 -172 156 0
-280 51 0
-280 -7 0
-280 -47 0
-280 130 0
-280 49 0
280 -51 7 47 -130 -49 0
276 277 278 279 280 0
-281 -163 0
-281 -82 0
-281 -4 0
-281 168 0
-281 47 0
281 163 82 4 -168 -47 0
-282 -132 0
-282 -2 0
-282 126 0
-282 142 0
-282 37 0
282 132 2 -126 -142 -37 0
-283 -125 0
-283 -172 0
-283 24 0
-283 177 0
-283 -68 0
283 125 172 -24 -177 68 0
-284 30 0
-284 54 0
-284 143 0
-284 164 0
-284 132 0
284 -30 -54 -143 -164 -132 0
-285 -10 0
-285 -131 0
-285 -64 0
-285 -106 0
-285 -92 0
285 10 131 64 106 92 0
281 282 283 284 285 0
-286 121 0
-286 -30 0
-286 -29 0
-286 -130 0
-286 -55 0
286 -121 30 29 130 55 0
-287 -154 0
-287 24 0
-287 102 0
-287 6 0
-287 126 0
287 154 -24 -102 -6 -126 0
-288 -93 0
-288 18 0
-288 -190 0
-288 13 0
-288 23 0
288 93 -18 190 -13 -23 0
-289 -102 0
-289 -123 0
-289 141 0
-289 -154 0
-289 -6 0
289 102 123 -141 154 6 0
-290 130 0
-290 -27 0
-290 106 0
-290 111 0
-290 -88 0
290 -130 27 -106 -111 88 0
286 287 288 289 290 0
-291 35 0
-291 34 0
-291 -66 0
-291 -119 0
-291 111 0
291 -35 -34 66 119 -111 0
-292 -156 0
-292 -38 0
-292 116 0
-292 74 0
-292 158 0
292 156 38 -116 -74 -158 0
-293 -174 0
-293 -61 0
-293 -154 0
-293 45 0
-293 -114 0
293 174 61 154 -45 114 0
-294 -98 0
-294 -25 0
-294 -85 0
-294 -27 0
-294 -19 0
294 98 25 85 27 19 0
-295 140 0
-295 -171 0
-295 89 0
-295 184 0
-295 23 0
295 -140 171 -89 -184 -23 0
291 292 293 294 295 0
-296 22 0
-296 -126 0
-296 -54 0
-296 -73 0
-296 187 0
296 -22 126 54 73 -187 0
-297 -57 0
-297 -148 0
-297 -20 0
-297 -178 0
-297 94 0
297 57 148 20 178 -94 0
-298 -99 0
-298 -137 0
-298 -21 0
-298 48 0
-298 117 0
298 99 137 21 -48 -117 0
-299 -6 0
-299 29 0
-299 -114 0
-299 -65 0
-299 94 0
299 6 -29 114 65 -94 0
-300 12 0
-300 128 0
-300 65 0
-300 43 0
-300 64 0
300 -12 -128 -65 -43 -64 0
296 297 298 299 300 0
-301 -150 0
-301 -172 0
-301 44 0
-301 -148 0
-301 -6 0
301 150 172 -44 148 6 0
-302 27 0
-302 32 0
-302 -181 0
-302 -24 0
-302 -12 0
302 -27 -32 181 24 12 0
-303 -166 0
-303 113 0
-303 -180 0
-303 -98 0
-303 93 0
303 166 -113 180 98 -93 0
-304 -110 0
-304 -87 0
-304 136 0
-304 -190 0
-304 23 0
304 110 87 -136 190 -23 0
-305 13 0
-305 19 0
-305 -57 0
-305 -90 0
-305 -149 0
305 -13 -19 57 90 149 0
301 302 303 304 305 0
-306 -154 0
-306 -184 0
-306 37 0
-306 -162 0
-306 16 0
306 154 184 -37 162 -16 0
-307 -63 0
-307 170 0
-307 137 0
-307 61 0
-307 41 0
307 63 -170 -137 -61 -41 0
-308 120 0
-308 -170 0
-308 -108 0
-308 107 0
-308 -50 0
308 -120 170 108 -107 50 0
-309 14 0
-309 -52 0
-309 -140 0
-309 19 0
-309 76 0
309 -14 52 140 -19 -76 0
-310 -111 0
-310 153 0
-310 -150 0
-310 14 0
-310 32 0
310 111 -153 150 -14 -32 0
306 307 308 309 310 0
-311 -93 0
-311 -172 0
-311 -161 0
-311 -139 0
-311 62 0
311 93 172 161 139 -62 0
-312 189 0
-312 93 0
-312 -73 0
-312 -23 0
-312 -109 0
312 -189 -93 73 23 109 0
-313 -9 0
-313 124 0
-313 127 0
-313 -148 0
-313 59 0
313 9 -124 -127 148 -59 0
-314 36 0
-314 23 0
-314 -120 0
-314 -88 0
-314 69 0
314 -36 -23 120 88 -69 0
-315 124 0
-315 -3 0
-315 -175 0
-315 -40 0
-315 -157 0
315 -124 3 175 40 157 0
311 312 313 314 315 0
-316 182 0
-316 78 0
-316 183 0
-316 95 0
-316 -162 0
316 -182 -78 -183 -95 162 0
-317 -187 0
-317 188 0
-317 31 0
-317 -176 0
-317 -69 0
317 187 -188 -31 176 69 0
-318 -185 0
-318 128 0
-318 181 0
-318 52 0
-318 -122 0
318 185 -128 -181 -52 122 0
-319 -120 0
-319 -94 0
-319 17 0
-319 -21 0
-319 15 0
319 120 94 -17 21 -15 0
-320 166 0
-320 -89 0
-320 14 0
-320 140 0
-320 -141 0
320 -166 89 -14 -140 141 0
316 317 318 319 320 0
-321 -85 0
-321 -113 0
-321 -143 0
-321 -32 0
-321 -130 0
321 85 113 143 32 130 0
-322 85 0
-322 41 0
-322 -32 0
-322 173 0
-322 39 0
322 -85 -41 32 -173 -39 0
-323 46 0
-323 79 0
-323 -75 0
-323 106 0
-323 152 0
323 -46 -79 75 -106 -152 0
-324 187 0
-324 129 0
-324 -56 0
-324 157 0
-324 -184 0
324 -187 -129 56 -157 184 0
-325 -166 0
-325 -134 0
-325 -160 0
-325 -104 0
-325 74 0
325 166 134 160 104 -74 0
321 322 323 324 325 0
-326 132 0
-326 -26 0
-326 -171 0
-326 137 0
-326 67 0
326 -132 26 171 -137 -67 0
-327 41 0
-327 9 0
-327 22 0
-327 48 0
-327 96 0
327 -41 -9 -22 -48 -96 0
-328 106 0
-328 -99 0
-328 101 0
-328 -188 0
-328 -187 0
328 -106 99 -101 188 187 0
-329 -26 0
-329 -33 0
-329 -166 0
-329 -23 0
-329 17 0
329 26 33 166 23 -17 0
-330 -154 0
-330 106 0
-330 -7 0
-330 114 0
-330 108 0
330 154 -106 7 -114 -108 0
326 327 328 329 330 0
-331 -104 0
-331 -13 0
-331 -168 0
-331 49 0
-331 -86 0
331 104 13 168 -49 86 0
-332 137 0
-332 -45 0
-332 13 0
-332 -187 0
-332 -186 0
332 -137 45 -13 187 186 0
-333 15 0
-333 -49 0
-333 -20 0
-333 4 0
-333 -62 0
333 -15 49 20 -4 62 0
-334 -31 0
-334 -120 0
-334 156 0
-334 -60 0
-334 39 0
334 31 120 -156 60 -39 0
-335 -175 0
-335 182 0
-335 154 0
-335 -183 0
-335 113 0
335 175 -182 -154 183 -113 0
331 332 333 334 335 0
-336 -133 0
-336 74 0
-336 -70 0
-336 139 0
-336 81 0
336 133 -74 70 -139 -81 0
-337 -89 0
-337 -189 0
-337 92 0
-337 142 0
-337 26 0
337 89 189 -92 -142 -26 0
-338 -57 0
-338 -27 0
-338 -110 0
-338 74 0
-338 -121 0
338 57 27 110 -74 121 0
-339 -3 0
-339 -122 0
-339 -189 0
-339 54 0
-339 -121 0
339 3 122 189 -54 121 0
-340 -181 0
-340 -144 0
-340 -139 0
-340 189 0
-340 -92 0
340 181 144 139 -189 92 0
336 337 338 339 340 0
-341 54 0
-341 144 0
-341 184 0
-341 -153 0
-341 115 0
341 -54 -144 -184 153 -115 0
-342 93 0
-342 -83 0
-342 128 0
-342 -92 0
-342 165 0
342 -93 83 -128 92 -165 0
-343 25 0
-343 -21 0
-343 -40 0
-343 -120 0
-343 172 0
343 -25 21 40 120 -172 0
-344 -118 0
-344 -75 0
-344 129 0
-344 133 0
-344 -132 0
344 118 75 -129 -133 132 0
-345 111 0
-345 -162 0
-345 -51 0
-345 -15 0
-345 -29 0
345 -111 162 51 15 29 0
341 342 343 344 345 0
-346 157 0
-346 -82 0
-346 62 0
-346 -20 0
-346 -108 0
346 -157 82 -62 20 108 0
-347 -31 0
-347 -19 0
-347 107 0
-347 143 0
-347 141 0
347 31 19 -107 -143 -141 0
-348 -144 0
-348 127 0
-348 130 0
-348 -85 0
-348 92 0
348 144 -127 -130 85 -92 0
-349 180 0
-349 -66 0
-349 113 0
-349 119 0
-349 -18 0
349 -180 66 -113 -119 18 0
-350 -78 0
-350 21 0
-350 -103 0
-350 110 0
-350 14 0
350 78 -21 103 -110 -14 0
346 347 348 349 350 0
-351 -40 0
-351 -131 0
-351 7 0
-351 133 0
-351 -149 0
351 40 131 -7 -133 149 0
-352 -119 0
-352 -187 0
-352 -97 0
-352 25 0
-352 -185 0
352 119 187 97 -25 185 0
-353 59 0
-353 18 0
-353 168 0
-353 73 0
-353 -178 0
353 -59 -18 -168 -73 178 0
-354 130 0
-354 -187 0
-354 40 0
-354 -177 0
-354 38 0
354 -130 187 -40 177 -38 0
-355 -187 0
-355 -118 0
-355 176 0
-355 -78 0
-355 12 0
355 187 118 -176 78 -12 0
351 352 353 354 355 0
-356 -32 0
-356 116 0
-356 159 0
-356 -78 0
-356 -91 0
356 32 -116 -159 78 91 0
-357 -62 0
-357 -51 0
-357 187 0
-357 -25 0
-357 117 0
357 62 51 -187 25 -117 0
-358 24 0
-358 -51 0
-358 -56 0
-358 -156 0
-358 34 0
358 -24 51 56 156 -34 0
-359 -41 0
-359 -14 0
-359 -64 0
-359 -69 0
-359 -182 0
359 41 14 64 69 182 0
-360 -59 0
-360 -171 0
-360 -102 0
-360 14 0
-360 142 0
360 59 171 102 -14 -142 0
356 357 358 359 360 0
-361 -81 0
-361 -74 0
-361 163 0
-361 112 0
-361 159 0
361 81 74 -163 -112 -159 0
-362 -27 0
-362 178 0
-362 -5 0
-362 -60 0
-362 91 0
362 27 -178 5 60 -91 0
-363 -167 0
-363 48 0
-363 -121 0
-363 -92 0
-363 74 0
363 167 -48 121 92 -74 0
-364 16 0
-364 45 0
-364 -145 0
-364 -105 0
-364 181 0
364 -16 -45 145 105 -181 0
-365 45 0
-365 -187 0
-365 175 0
-365 100 0
-365 79 0
365 -45 187 -175 -100 -79 0
361 362 363 364 365 0
-366 -47 0
-366 -92 0
-366 -49 0
-366 111 0
-366 72 0
366 47 92 49 -111 -72 0
-367 -11 0
-367 -106 0
-367 137 0
-367 156 0
-367 90 0
367 11 106 -137 -156 -90 0
-368 -16 0
-368 19 0
-368 -68 0
-368 -148 0
-368 -168 0
368 16 -19 68 148 168 0
-369 164 0
-369 74 0
-369 -41 0
-369 -180 0
-369 187 0
369 -164 -74 41 180 -187 0
-370 163 0
-370 -23 0
-370 -173 0
-370 -180 0
-370 -166 0
370 -163 23 173 180 166 0
366 367 368 369 370 0
-371 -42 0
-371 -62 0
-371 183 0
-371 -180 0
-371 58 0
371 42 62 -183 180 -58 0
-372 -160 0
-372 76 0
-372 29 0
-372 189 0
-372 118 0
372 160 -76 -29 -189 -118 0
-373 -126 0
-373 93 0
-373 13 0
-373 116 0
-373 32 0
373 126 -93 -13 -116 -32 0
-374 44 0
-374 82 0
-374 149 0
-374 171 0
-374 -164 0
374 -44 -82 -149 -171 164 0
-375 14 0
-375 11 0
-375 180 0
-375 73 0
-375 175 0
375 -14 -11 -180 -73 -175 0
371 372 373 374 375 0
-376 -157 0
-376 -16 0
-376 46 0
-376 -132 0
-376 -33 0
376 157 16 -46 132 33 0
-377 155 0
-377 134 0
-377 -25 0
-377 -60 0
-377 -144 0
377 -155 -134 25 60 144 0
-378 140 0
-378 37 0
-378 -189 0
-378 4 0
-378 -56 0
378 -140 -37 189 -4 56 0
-379 131 0
-379 -44 0
-379 -16 0
-379 101 0
-379 159 0
379 -131 44 16 -101 -159 0
-380 50 0
-380 114 0
-380 184 0
-380 -141 0
-380 -185 0
380 -50 -114 -184 141 185 0
376 377 378 379 380 0
-381 -17 0
-381 12 0
-381 -186 0
-381 168 0
-381 -78 0
381 17 -12 186 -168 78 0
-382 96 0
-382 -18 0
-382 25 0
-382 59 0
-382 -11 0
382 -96 18 -25 -59 11 0
-383 176 0
-383 113 0
-383 183 0
-383 -64 0
-383 189 0
383 -176 -113 -183 64 -189 0
-384 133 0
-384 178 0
-384 141 0
-384 -118 0
-384 166 0
384 -133 -178 -141 118 -166 0
-385 126 0
-385 144 0
-385 -155 0
-385 -107 0
-385 44 0
385 -126 -144 155 107 -44 0
381 382 383 384 385 0
-386 2 0
-386 7 0
-386 126 0
-386 87 0
-386 -95 0
386 -2 -7 -126 -87 95 0
-387 -34 0
-387 -109 0
-387 -49 0
-387 -120 0
-387 -36 0
387 34 109 49 120 36 0
-388 182 0
-388 -181 0
-388 -47 0
-388 117 0
-388 -111 0
388 -182 181 47 -117 111 0
-389 -91 0
-389 167 0
-389 170 0
-389 -75 0
-389 4 0
389 91 -167 -170 75 -4 0
-390 -9 0
-390 4 0
-390 59 0
-390 17 0
-390 -96 0
390 9 -4 -59 -17 96 0
386 387 388 389 390 0
-391 163 0
-391 -104 0
-391 -69 0
-391 82 0
-391 -7 0
391 -163 104 69 -82 7 0
-392 155 0
-392 62 0
-392 -49 0
-392 -68 0
-392 160 0
392 -155 -62 49 68 -160 0
-393 179 0
-393 50 0
-393 171 0
-393 -46 0
-393 -42 0
393 -179 -50 -171 46 42 0
-394 -121 0
-394 -134 0
-394 13 0
-394 189 0
-394 187 0
394 121 134 -13 -189 -187 0
-395 -10 0
-395 -6 0
-395 190 0
-395 -171 0
-395 -187 0
395 10 6 -190 171 187 0
391 392 393 394 395 0
-396 -168 0
-396 14 0
-396 -5 0
-396 -70 0
-396 80 0
396 168 -14 5 70 -80 0
-397 -29 0
-397 148 0
-397 -57 0
-397 -24 0
-397 -10 0
397 29 -148 57 24 10 0
-398 -78 0
-398 -124 0
-398 54 0
-398 183 0
-398 7 0
398 78 124 -54 -183 -7 0
-399 -139 0
-399 104 0
-399 107 0
-399 97 0
-399 170 0
399 139 -104 -107 -97 -170 0
-400 -130 0
-400 25 0
-400 -80 0
-400 -148 0
-400 89 0
400 130 -25 80 148 -89 0
396 397 398 399 400 0
-401 -90 0
-401 160 0
-401 -16 0
-401 181 0
-401 -46 0
401 90 -160 16 -181 46 0
-402 -137 0
-402 -5 0
-402 -114 0
-402 134 0
-402 -129 0
402 137 5 114 -134 129 0
-403 -171 0
-403 -9 0
-403 40 0
-403 -126 0
-403 -168 0
403 171 9 -40 126 168 0
-404 -23 0
-404 -95 0
-404 -189 0
-404 -7 0
-404 33 0
404 23 95 189 7 -33 0
-405 -177 0
-405 152 0
-405 100 0
-405 -38 0
-405 -72 0
405 177 -152 -100 38 72 0
401 402 403 404 405 0
-406 -25 0
-406 115 0
-406 170 0
-406 -5 0
-406 -162 0
406 25 -115 -170 5 162 0
-407 -153 0
-407 -180 0
-407 -184 0
-407 63 0
-407 137 0
407 153 180 184 -63 -137 0
-408 157 0
-408 184 0
-408 -111 0
-408 45 0
-408 85 0
408 -157 -184 111 -45 -85 0
-409 -179 0
-409 118 0
-409 -161 0
-409 122 0
-409 49 0
409 179 -118 161 -122 -49 0
-410 -119 0
-410 -77 0
-410 -12 0
-410 61 0
-410 -40 0
410 119 77 12 -61 40 0
406 407 408 409 410 0
-411 108 0
-411 95 0
-411 119 0
-411 -57 0
-411 -153 0
411 -108 -95 -119 57 153 0
-412 126 0
-412 87 0
-412 138 0
-412 85 0
-412 95 0
412 -126 -87 -138 -85 -95 0
-413 95 0
-413 -60 0
-413 -52 0
-413 -100 0
-413 -73 0
413 -95 60 52 100 73 0
-414 55 0
-414 49 0
-414 26 0
-414 102 0
-414 90 0
414 -55 -49 -26 -102 -90 0
-415 65 0
-415 96 0
-415 -8 0
-415 -45 0
-415 -35 0
415 -65 -96 8 45 35 0
411 412 413 414 415 0
-416 102 0
-416 -66 0
-416 75 0
-416 134 0
-416 14 0
416 -102 66 -75 -134 -14 0
-417 107 0
-417 115 0
-417 -127 0
-417 78 0
-417 -147 0
417 -107 -115 127 -78 147 0
-418 -142 0
-418 -88 0
-418 181 0
-418 10 0
-418 5 0
418 142 88 -181 -10 -5 0
-419 -44 0
-419 -143 0
-419 -145 0
-419 -34 0
-419 26 0
419 44 143 145 34 -26 0
-420 119 0
-420 -106 0
-420 56 0
-420 -146 0
-420 189 0
420 -119 106 -56 146 -189 0
416 417 418 419 420 0
-421 -190 0
-421 14 0
-421 64 0
-421 -11 0
-421 178 0
421 190 -14 -64 11 -178 0
-422 147 0
-422 78 0
-422 164 0
-422 8 0
-422 26 0
422 -147 -78 -164 -8 -26 0
-423 -43 0
-423 -42 0
-423 -44 0
-423 -137 0
-423 -41 0
423 43 42 44 137 41 0
-424 175 0
-424 111 0
-424 -16 0
-424 -185 0
-424 54 0
424 -175 -111 16 185 -54 0
-425 181 0
-425 -120 0
-425 -64 0
-425 -77 0
-425 -20 0
425 -181 120 64 77 20 0
421 422 423 424 425 0
-426 82 0
-426 -14 0
-426 -47 0
-426 -26 0
-426 -16 0
426 -82 14 47 26 16 0
-427 -178 0
-427 -82 0
-427 -138 0
-427 -47 0
-427 -113 0
427 178 82 138 47 113 0
-428 -117 0
-428 8 0
-428 -188 0
-428 173 0
-428 186 0
428 117 -8 188 -173 -186 0
-429 -14 0
-429 -125 0
-429 -93 0
-429 -63 0
-429 -150 0
429 14 125 93 63 150 0
-430 38 0
-430 -59 0
-430 72 0
-430 173 0
-430 -153 0
430 -38 59 -72 -173 153 0
426 427 428 429 430 0
